100
504 803 667 1103 834 585 811 856 690 832 846 813 868 793 825 1002 860 615 540 797 616 660 707 866 647 746 1006 608 877 900 573 788 484 853 942 630 591 630 640 1169 932 1034 957 798 669 625 467 1051 552 717 654 388 559 555 1104 783 959 668 507 855 986 831 821 825 868 852 832 828 799 686 510 671 575 740 510 675 996 636 826 1022 1140 654 909 799 1162 653 814 625 599 476 767 954 906 904 649 873 565 853 1008 632 
13056 
404 197 817 1000 44 307 39 659 46 334 448 599 931 776 263 980 807 378 278 841 700 210 542 636 388 129 203 110 817 502 657 804 662 989 585 645 113 436 610 948 919 115 967 13 445 449 740 592 327 167 368 335 179 909 825 614 987 350 179 415 821 525 774 283 427 275 659 392 73 896 68 982 697 421 246 672 649 731 191 514 983 886 95 846 689 206 417 14 735 267 822 977 302 687 118 990 323 993 525 322 
